clingo version 5.6.2
Reading from ...etition/0015-graph_colouring-130-0.asp ...
Solving...
UNSATISFIABLE

Models       : 0
Calls        : 1
Time         : 56.361s (Solving: 56.17s 1st Model: 0.00s Unsat: 56.17s)
CPU Time     : 56.357s

Choices      : 1754652 
Conflicts    : 1623669  (Analyzed: 1623668)
Restarts     : 4093     (Average: 396.69 Last: 16886)
Problems     : 1        (Average Length: 0.00 Splits: 0)
Lemmas       : 1623668  (Deleted: 1568759)
  Binary     : 333      (Ratio:   0.02%)
  Ternary    : 2205     (Ratio:   0.14%)
  Conflict   : 1623668  (Average Length:   24.9 Ratio: 100.00%) 
  Loop       : 0        (Average Length:    0.0 Ratio:   0.00%) 
  Other      : 0        (Average Length:    0.0 Ratio:   0.00%) 
Backjumps    : 1623668  (Average:  1.07 Max:  11 Sum: 1732183)
  Executed   : 1623668  (Average:  1.07 Max:  11 Sum: 1732183 Ratio: 100.00%)
  Bounded    : 0        (Average:  0.00 Max:   0 Sum:      0 Ratio:   0.00%)

Rules        : 18020   
Atoms        : 3304    
Bodies       : 1280    
Equivalences : 3749     (Atom=Atom: 31 Body=Body: 622 Other: 3096)
Tight        : Yes
Variables    : 746      (Eliminated:    0 Frozen:    0)
Constraints  : 6895     (Binary:  89.3% Ternary:   0.1% Other:  10.6%)

